n = 20
Q1 = [0 37 22 27 28 21 29 36 31 42 26 49 23 27 41 12 43 39 7 20; 0 0 13 39 9 34 21 21 49 23 42 10 37 28 24 5 20 39 45 32; 0 0 0 9 41 40 21 11 9 32 46 5 17 44 40 10 39 29 11 43; 0 0 0 0 27 24 22 22 32 50 33 25 10 7 41 22 16 39 50 24; 0 0 0 0 0 28 39 13 21 45 20 29 38 14 31 40 49 23 21 33; 0 0 0 0 0 0 50 17 40 8 50 41 44 15 32 32 38 32 7 42; 0 0 0 0 0 0 0 37 17 32 30 35 23 50 24 22 16 32 14 38; 0 0 0 0 0 0 0 0 29 46 15 10 12 18 21 43 20 36 32 43; 0 0 0 0 0 0 0 0 0 5 39 21 38 19 36 49 13 26 19 47; 0 0 0 0 0 0 0 0 0 0 41 29 49 7 16 22 40 16 20 10; 0 0 0 0 0 0 0 0 0 0 0 39 48 28 23 27 9 46 13 16; 0 0 0 0 0 0 0 0 0 0 0 0 37 9 11 28 30 14 19 15; 0 0 0 0 0 0 0 0 0 0 0 0 0 49 50 39 44 34 49 46; 0 0 0 0 0 0 0 0 0 0 0 0 0 0 16 35 14 48 22 46; 0 0 0 0 0 0 0 0 0 0 0 0 0 0 0 17 47 37 11 12; 0 0 0 0 0 0 0 0 0 0 0 0 0 0 0 0 33 43 37 23; 0 0 0 0 0 0 0 0 0 0 0 0 0 0 0 0 0 50 40 25; 0 0 0 0 0 0 0 0 0 0 0 0 0 0 0 0 0 0 36 22; 0 0 0 0 0 0 0 0 0 0 0 0 0 0 0 0 0 0 0 13; 0 0 0 0 0 0 0 0 0 0 0 0 0 0 0 0 0 0 0 0]
Q2=[0.0 11.0 36.0 12.0 8.0 35.0 2.0 1.0 13.0 1.0 8.0 1.0 31.0 12.0 7.0 45.0 7.0 7.0 47.0 34.0; 0.0 0.0 40.0 3.0 50.0 2.0 46.0 42.0 1.0 40.0 3.0 48.0 7.0 2.0 41.0 50.0 31.0 11.0 2.0 17.0; 0.0 0.0 0.0 45.0 4.0 9.0 43.0 48.0 50.0 5.0 4.0 48.0 37.0 6.0 8.0 50.0 8.0 21.0 47.0 2.0; 0.0 0.0 0.0 0.0 11.0 40.0 34.0 41.0 2.0 0.0 0.0 23.0 42.0 43.0 7.0 32.0 43.0 0.0 0.0 37.0; 0.0 0.0 0.0 0.0 0.0 0.0 0.0 47.0 44.0 1.0 33.0 16.0 4.0 38.0 3.0 7.0 1.0 45.0 44.0 4.0; 0.0 0.0 0.0 0.0 0.0 0.0 0.0 42.0 4.0 42.0 0.0 7.0 2.0 36.0 14.0 6.0 3.0 7.0 46.0 7.0; 0.0 0.0 0.0 0.0 0.0 0.0 0.0 4.0 50.0 14.0 1.0 6.0 43.0 0.0 30.0 47.0 50.0 13.0 47.0 8.0; 0.0 0.0 0.0 0.0 0.0 0.0 0.0 0.0 4.0 2.0 50.0 45.0 45.0 49.0 42.0 6.0 37.0 11.0 15.0 1.0; 0.0 0.0 0.0 0.0 0.0 0.0 0.0 0.0 0.0 48.0 4.0 38.0 10.0 39.0 5.0 1.0 41.0 1.0 49.0 0.0; 0.0 0.0 0.0 0.0 0.0 0.0 0.0 0.0 0.0 0.0 5.0 6.0 0.0 49.0 50.0 34.0 7.0 44.0 30.0 41.0; 0.0 0.0 0.0 0.0 0.0 0.0 0.0 0.0 0.0 0.0 0.0 1.0 1.0 4.0 43.0 21.0 43.0 4.0 50.0 39.0; 0.0 0.0 0.0 0.0 0.0 0.0 0.0 0.0 0.0 0.0 0.0 0.0 5.0 43.0 39.0 3.0 11.0 38.0 46.0 37.0; 0.0 0.0 0.0 0.0 0.0 0.0 0.0 0.0 0.0 0.0 0.0 0.0 0.0 0.0 0.0 10.0 4.0 11.0 1.0 1.0; 0.0 0.0 0.0 0.0 0.0 0.0 0.0 0.0 0.0 0.0 0.0 0.0 0.0 0.0 38.0 8.0 43.0 1.0 32.0 3.0; 0.0 0.0 0.0 0.0 0.0 0.0 0.0 0.0 0.0 0.0 0.0 0.0 0.0 0.0 0.0 49.0 1.0 2.0 44.0 42.0; 0.0 0.0 0.0 0.0 0.0 0.0 0.0 0.0 0.0 0.0 0.0 0.0 0.0 0.0 0.0 0.0 1.0 2.0 9.0 46.0; 0.0 0.0 0.0 0.0 0.0 0.0 0.0 0.0 0.0 0.0 0.0 0.0 0.0 0.0 0.0 0.0 0.0 0.0 10.0 2.0; 0.0 0.0 0.0 0.0 0.0 0.0 0.0 0.0 0.0 0.0 0.0 0.0 0.0 0.0 0.0 0.0 0.0 0.0 11.0 41.0; 0.0 0.0 0.0 0.0 0.0 0.0 0.0 0.0 0.0 0.0 0.0 0.0 0.0 0.0 0.0 0.0 0.0 0.0 0.0 46.0; 0.0 0.0 0.0 0.0 0.0 0.0 0.0 0.0 0.0 0.0 0.0 0.0 0.0 0.0 0.0 0.0 0.0 0.0 0.0 0.0]
